c turning on binary mode checking
c parsing input formula with 259840 variables and 1039929 clauses
c finished parsing, read 3072401 bytes from proof file
c detected empty clause; start verification via backward checking
c 4656 of 1039929 clauses in core                            
c 1354 of 128285 lemmas in core using 46233 resolution steps
c 0 RAT lemmas in core; 148 redundant literals in core lemmas
s VERIFIED
c verification time: 1.306 seconds
